qe/outputs/qe/cbrdelay_obs_newl/T=6,eliminate=[I_0,I_1,I_2,I_3,I_4,I_5,L_1,L_2,L_3,L_4,L_5,C,B,S_5,lhs=A_5_3].smt2
; benchmark generated from python API
(set-info :status unknown)
(declare-fun S_0 () Real)
(declare-fun S_1 () Real)
(declare-fun S_4 () Real)
(declare-fun S_2 () Real)
(declare-fun L_0 () Real)
(declare-fun A_0 () Real)
(declare-fun S_3 () Real)
(declare-fun A_1 () Real)
(declare-fun A_5 () Real)
(declare-fun A_4 () Real)
(declare-fun loss_rate_tol () Real)
(declare-fun A_3 () Real)
(declare-fun A_2 () Real)
(assert
 (let (($x5118 (<= (+ (* (- 2.0) S_4) (* (- 1.0) A_0) L_0 (* 3.0 S_2)) 0.0)))
 (let (($x6204 (<= (+ (* (- (/ 1.0 2.0)) S_4) (* (- 1.0) A_0) L_0 (* (/ 3.0 2.0) S_1)) 0.0)))
 (let (($x39 (>= L_0 0.0)))
 (let (($x108871 (<= 0.0 (+ (* (- 1.0) A_0) L_0 (* (/ 1.0 2.0) A_4) (* (- (/ 1.0 2.0)) A_5) S_2))))
 (let (($x108872 (not $x108871)))
 (let ((?x474 (* (- 1.0) A_5)))
 (let ((?x1363 (* (- 1.0) A_0)))
 (let (($x105178 (not (<= 0.0 (+ S_4 ?x1363 L_0 A_4 ?x474 loss_rate_tol)))))
 (let ((?x4259 (* 2.0 L_0)))
 (let ((?x6700 (* (- 2.0) A_0)))
 (let (($x105003 (not (<= 0.0 (+ ?x6700 ?x4259 A_1 ?x474 (* 2.0 S_2) loss_rate_tol)))))
 (let (($x105000 (<= 0.0 (+ ?x1363 (* (/ 4.0 3.0) L_0) (* (- (/ 1.0 3.0)) A_5) (* (/ 4.0 3.0) S_2)))))
 (let (($x105001 (not $x105000)))
 (let (($x103986 (not (<= 0.0 loss_rate_tol))))
 (let (($x108914 (not (<= (- 5.0) (+ (* (/ 1.0 4.0) A_4) (* (- (/ 1.0 4.0)) A_5))))))
 (let (($x105380 (not (<= (+ A_5 (* (- 1.0) A_1) (* (- 1.0) loss_rate_tol)) 20.0))))
 (let (($x105334 (not (<= (- 5.0) (+ (* (/ 1.0 6.0) L_0) (* (- (/ 1.0 6.0)) A_5) (* (/ 1.0 6.0) S_2))))))
 (let ((?x4789 (* (/ 4.0 3.0) loss_rate_tol)))
 (let ((?x1425 (* (- 1.0) S_0)))
 (let ((?x7086 (* (- (/ 4.0 3.0)) A_5)))
 (let ((?x10149 (* (/ 4.0 3.0) A_4)))
 (let (($x107340 (not (<= 0.0 (+ S_4 ?x10149 ?x7086 ?x1425 ?x4789)))))
 (let (($x106885 (not (<= (- 5.0) (+ (* (/ 1.0 5.0) L_0) (* (- (/ 1.0 5.0)) A_5) (* (/ 1.0 5.0) S_3))))))
 (let (($x111788 (not (<= (- 15.0) (+ A_4 ?x474 loss_rate_tol)))))
 (let (($x106960 (not (<= (- 5.0) (+ (* (/ 1.0 4.0) S_4) (* (/ 1.0 4.0) L_0) (* (- (/ 1.0 4.0)) A_5))))))
 (let ((?x5023 (* 3.0 loss_rate_tol)))
 (let ((?x3071 (* (- 3.0) A_5)))
 (let ((?x2718 (* 3.0 A_4)))
 (let (($x112365 (<= 0.0 (+ (* (/ 3.0 4.0) A_4) (* (- (/ 3.0 4.0)) A_5) S_3 (* (- 1.0) S_1)))))
 (let (($x112366 (not $x112365)))
 (let (($x106486 (<= 0.0 (+ ?x1363 (* (/ 8.0 5.0) L_0) (* (- (/ 3.0 5.0)) A_5) (* (/ 8.0 5.0) S_3)))))
 (let (($x106487 (not $x106486)))
 (let (($x284919 (or $x103986 $x106487 $x112366 (not (<= 0.0 (+ ?x1363 L_0 ?x2718 ?x3071 S_3 ?x5023))))))
 (let (($x108862 (not (<= 0.0 (+ S_4 A_4 ?x474 (* (- 1.0) S_1) loss_rate_tol)))))
 (let ((?x4291 (* 2.0 loss_rate_tol)))
 (let ((?x436 (* (- 1.0) S_2)))
 (let ((?x2815 (* (- 2.0) A_5)))
 (let ((?x3092 (* 2.0 A_4)))
 (let ((?x2705 (* 2.0 S_4)))
 (let (($x111070 (not (<= 0.0 (+ ?x2705 ?x3092 ?x2815 ?x436 ?x1425 ?x4291)))))
 (let (($x116563 (not (<= 0.0 (+ ?x2815 (* 2.0 A_3) S_3 ?x1425 ?x4291)))))
 (let (($x111363 (not (<= 0.0 (+ (* (/ 1.0 2.0) A_4) (* (- (/ 1.0 2.0)) A_5) S_1 ?x1425)))))
 (let (($x108445 (<= 0.0 (+ (* (/ 4.0 5.0) L_0) (* (- (/ 4.0 5.0)) A_5) (* (/ 9.0 5.0) S_3) ?x1425))))
 (let (($x108446 (not $x108445)))
 (let (($x116444 (not (<= 0.0 (+ ?x474 A_3 S_3 ?x436 loss_rate_tol)))))
 (let (($x106478 (<= 0.0 (+ (* (/ 2.0 5.0) L_0) (* (- (/ 2.0 5.0)) A_5) (* (/ 7.0 5.0) S_3) ?x436))))
 (let (($x106479 (not $x106478)))
 (let (($x1353 (<= (+ (* (- (/ 4.0 3.0)) S_4) (* (- 1.0) L_0) A_4 (* (/ 1.0 3.0) S_0)) 0.0)))
 (let (($x105692 (not (<= (- 10.0) (+ ?x474 A_3 loss_rate_tol)))))
 (let (($x104503 (not (<= (- 40.0) (+ L_0 ?x474 S_0)))))
 (let (($x107033 (<= 0.0 (+ A_4 ?x474 (* (/ 1.0 2.0) S_1) (* (- (/ 1.0 2.0)) S_0) loss_rate_tol))))
 (let (($x105502 (<= 0.0 (+ (* (/ 2.0 7.0) L_0) (* (- (/ 2.0 7.0)) A_5) (* (/ 9.0 7.0) S_1) ?x1425))))
 (let (($x105503 (not $x105502)))
 (let (($x112105 (not (<= 0.0 (+ A_4 ?x474 S_3 ?x1425)))))
 (let (($x107534 (not (<= 0.0 (+ A_1 ?x474 S_3 ?x1425 loss_rate_tol)))))
 (let (($x105387 (not (<= (- 5.0) (+ (* (/ 1.0 7.0) L_0) (* (- (/ 1.0 7.0)) A_5) (* (/ 1.0 7.0) S_1))))))
 (let (($x108859 (<= 0.0 (+ (* (/ 1.0 2.0) A_4) (* (- (/ 1.0 2.0)) A_5) S_2 (* (- 1.0) S_1)))))
 (let (($x108860 (not $x108859)))
 (let ((?x430 (* (- 1.0) S_1)))
 (let ((?x5903 (* (/ 4.0 3.0) S_2)))
 (let ((?x5893 (* (- (/ 1.0 3.0)) A_5)))
 (let (($x107443 (not (<= 0.0 (+ (* (/ 1.0 3.0) L_0) ?x5893 ?x5903 ?x430)))))
 (let ((?x8227 (* (/ 1.0 2.0) loss_rate_tol)))
 (let ((?x13239 (* (/ 1.0 2.0) A_1)))
 (let ((?x5912 (* (- (/ 1.0 2.0)) A_5)))
 (let (($x289170 (or $x103986 (not (<= 0.0 (+ ?x5912 ?x13239 S_2 ?x430 ?x8227))) $x107443 $x108860 $x108862)))
 (let (($x115423 (<= 0.0 (+ ?x474 A_2 (* (/ 3.0 2.0) S_2) (* (- (/ 3.0 2.0)) S_1) loss_rate_tol))))
 (let (($x115424 (not $x115423)))
 (let (($x105391 (<= 0.0 (+ A_1 ?x474 (* 2.0 S_1) (* (- 2.0) S_0) loss_rate_tol))))
 (let (($x105392 (not $x105391)))
 (let ((?x8266 (* (/ 3.0 2.0) loss_rate_tol)))
 (let ((?x1636 (* (- (/ 1.0 2.0)) S_3)))
 (let ((?x8265 (* (- (/ 3.0 2.0)) A_5)))
 (let ((?x3442 (* (/ 3.0 2.0) A_4)))
 (let ((?x6251 (* (/ 3.0 2.0) S_4)))
 (let (($x105203 (not (<= 0.0 (+ ?x6251 ?x3442 ?x8265 ?x1636 ?x1425 ?x8266)))))
 (let ((?x5808 (* (/ 2.0 3.0) loss_rate_tol)))
 (let ((?x54475 (* (/ 2.0 3.0) A_2)))
 (let ((?x8617 (* (- (/ 2.0 3.0)) A_5)))
 (let (($x110445 (not (<= 0.0 (+ (* (/ 1.0 2.0) A_4) ?x5912 S_3 ?x436)))))
 (let (($x107113 (<= 0.0 (+ (* (/ 3.0 5.0) L_0) (* (- (/ 3.0 5.0)) A_5) (* (/ 8.0 5.0) S_3) ?x430))))
 (let (($x107114 (not $x107113)))
 (let (($x287742 (or $x103986 $x107114 $x112105 (not (<= 0.0 (+ ?x8265 (* (/ 3.0 2.0) A_3) S_3 ?x430 ?x8266))))))
 (let (($x115491 (not (<= 0.0 (+ ?x7086 (* (/ 4.0 3.0) A_2) S_3 ?x1425 ?x4789)))))
 (let (($x105876 (not (<= (- 5.0) (+ S_4 A_4 ?x474 ?x436 loss_rate_tol)))))
 (let (($x135957 (or $x103986 $x107114 $x112366 (not (<= 0.0 (+ ?x474 A_2 S_3 ?x430 loss_rate_tol))))))
 (let (($x105339 (not (<= (- 5.0) (+ (* (/ 1.0 2.0) S_4) (* (/ 1.0 2.0) A_4) ?x5912 ?x1636 ?x8227)))))
 (let (($x108856 (not (<= 0.0 (+ ?x1363 L_0 (* (/ 1.0 4.0) A_4) (* (- (/ 1.0 4.0)) A_5) S_1)))))
 (let (($x104960 (<= 0.0 (+ ?x1363 (* (/ 8.0 7.0) L_0) (* (- (/ 1.0 7.0)) A_5) (* (/ 8.0 7.0) S_1)))))
 (let (($x104964 (not $x104960)))
 (let ((?x6803 (+ (* (- 4.0) A_0) (* 4.0 L_0) A_1 ?x474 (* 4.0 S_1) loss_rate_tol)))
 (let (($x107704 (<= 0.0 (+ ?x474 A_2 (* (/ 3.0 2.0) S_1) (* (- (/ 3.0 2.0)) S_0) loss_rate_tol))))
 (let (($x110480 (not (<= 0.0 (+ ?x1363 L_0 (* (/ 3.0 4.0) A_4) (* (- (/ 3.0 4.0)) A_5) S_3)))))
 (let (($x144453 (or $x103986 $x106487 $x110480 (not (<= 0.0 (+ ?x1363 L_0 ?x474 A_2 S_3 loss_rate_tol))))))
 (let (($x275738 (or $x103986 $x106487 $x112105 (not (<= 0.0 (+ ?x1363 L_0 ?x8265 (* (/ 3.0 2.0) A_3) S_3 ?x8266))))))
 (let (($x105943 (not (<= 0.0 (+ ?x1363 L_0 ?x474 A_3 S_2 loss_rate_tol)))))
 (let (($x111369 (not (<= 0.0 (+ (* (/ 3.0 4.0) A_4) (* (- (/ 3.0 4.0)) A_5) S_2 ?x1425)))))
 (let (($x106582 (not (<= 0.0 (+ ?x6700 ?x4259 ?x474 A_3 (* 2.0 S_1) loss_rate_tol)))))
 (let ((?x44853 (* 4.0 loss_rate_tol)))
 (let ((?x1819 (* (- 4.0) A_5)))
 (let ((?x3084 (* 4.0 A_4)))
 (let (($x275783 (or $x103986 $x106479 (not (<= 0.0 (+ ?x13239 ?x5912 S_3 ?x436 ?x8227))) $x110445 (not (<= 0.0 (+ ?x2705 ?x3092 ?x2815 S_3 (* (- 3.0) S_2) ?x4291))))))
 (let ((?x13267 (* (/ 3.0 4.0) loss_rate_tol)))
 (let ((?x8929 (* (- (/ 3.0 4.0)) A_5)))
 (let ((?x13266 (* (/ 3.0 4.0) A_1)))
 (let (($x108244 (not (<= 0.0 (+ ?x13266 ?x8929 S_3 ?x430 ?x13267)))))
 (let ((?x5599 (* (/ 3.0 2.0) S_2)))
 (let (($x105194 (<= 0.0 (+ (* (- (/ 3.0 2.0)) A_0) (* (/ 3.0 2.0) L_0) ?x474 A_2 ?x5599 loss_rate_tol))))
 (let (($x105195 (not $x105194)))
 (let (($x105792 (<= 0.0 (+ (* (/ 9.0 4.0) S_4) (* (/ 5.0 4.0) L_0) (* (- (/ 5.0 4.0)) A_5) ?x1425))))
 (let (($x105793 (not $x105792)))
 (let (($x105530 (not (<= 0.0 (+ (* (/ 1.0 2.0) L_0) ?x5912 ?x5599 ?x1425)))))
 (let (($x288938 (or $x103986 $x105530 (not (<= 0.0 (+ ?x8265 (* (/ 3.0 2.0) A_3) S_2 ?x1425 ?x8266))) $x112105)))
 (let (($x139377 (or $x103986 $x105530 $x111369 (not (<= 0.0 (+ ?x474 A_2 S_2 ?x1425 loss_rate_tol))))))
 (let (($x108694 (not (<= 0.0 (+ ?x1363 L_0 ?x13266 ?x8929 S_3 ?x13267)))))
 (let (($x131843 (or $x103986 (not (<= 0.0 (+ ?x6251 (* (/ 1.0 2.0) L_0) ?x5912 (* (- 1.0) S_3)))))))
 (let (($x106002 (not (<= 0.0 (+ ?x8929 ?x13266 S_2 ?x1425 ?x13267)))))
 (let (($x140119 (or $x103986 $x105503 (not (<= 0.0 (+ ?x474 A_3 S_1 ?x1425 loss_rate_tol))) $x111363)))
 (let (($x141249 (or $x103986 $x107443 $x108860 (not (<= 0.0 (+ ?x474 A_3 S_2 ?x430 loss_rate_tol))))))
 (let (($x105034 (not (<= 0.0 (+ ?x1363 L_0 ?x3092 ?x2815 S_2 ?x4291)))))
 (let (($x145384 (or $x103986 $x104964 (not (<= 0.0 (+ ?x1363 L_0 A_4 ?x474 S_1 loss_rate_tol))) $x108856)))
 (let ((?x3433 (* 3.0 S_1)))
 (let (($x105236 (<= 0.0 (+ (* (- 3.0) A_0) (* 3.0 L_0) ?x474 A_2 ?x3433 loss_rate_tol))))
 (let (($x107824 (or $x103986 (not (<= 0.0 (+ (* (/ 7.0 4.0) S_4) (* (/ 3.0 4.0) L_0) ?x8929 ?x436))))))
 (let (($x137 (>= S_4 S_3)))
 (let (($x128 (>= S_1 S_0)))
 (let (($x131 (>= S_2 S_1)))
 (let (($x134 (>= S_3 S_2)))
 (let (($x143 (>= A_2 A_1)))
 (let (($x144 (>= A_3 A_2)))
 (let (($x145 (>= A_4 A_3)))
 (let (($x146 (>= A_5 A_4)))
 (and (<= (+ A_0 (* (- 1.0) L_0)) S_4) $x146 $x145 $x144 $x143 $x134 $x131 $x128 $x137 (<= (+ (* (/ 1.0 4.0) S_4) ?x436 (* (/ 3.0 4.0) S_0)) 0.0) (<= (+ (* (/ 1.0 3.0) S_3) ?x436 (* (/ 2.0 3.0) S_0)) 0.0) (<= (+ (* (- 1.0) S_4) S_2) (- 5.0)) (<= (+ ?x1363 L_0 (* (- 1.0) S_3) (* 2.0 S_1)) 0.0) (<= (+ (* (- 2.0) S_3) ?x3433 ?x1425) 0.0) $x107824 (<= (+ S_4 (* (- 2.0) S_3) S_0) 0.0) (or $x103986 $x105380 $x105387 $x105876 $x108914) (or $x103986 $x105380 $x105876 $x106885 $x108914) (or $x103986 (not (<= 0.0 (+ ?x2705 L_0 ?x474 ?x430)))) (or $x103986 $x106960 $x108862) (or $x103986 $x106960 $x111070) (or $x103986 $x105203 $x106960) (or $x103986 $x105178 $x106960) (or $x103986 $x104964 (not $x105236) $x108856) $x145384 (or $x103986 $x105203 $x105530 $x106002 $x111369) (or $x103986 $x105178 $x105530 $x106002 $x111369) (or $x103986 $x105530 $x106002 $x107340 $x111369) (or $x103986 $x105203 $x105380 $x105387 $x108914) (or $x103986 $x105178 $x105380 $x105387 $x108914) (or $x103986 $x105380 $x105387 $x108914 $x111070) (or $x103986 $x105001 $x105195 $x108856) (or $x103986 $x105001 $x105034 $x108856) (or $x103986 $x105001 $x105034 $x112366) (or $x103986 $x105001 $x105034 $x108872) (or $x103986 $x105793 $x111070) $x141249 (or $x103986 $x105203 $x105392 $x105503 $x111363) $x140119 (or $x103986 (not (<= 0.0 (+ ?x2705 ?x1363 ?x4259 ?x474)))) (or $x103986 (not (<= (- 5.0) (+ A_4 ?x474 loss_rate_tol))) $x105334 $x108914) (or $x103986 (not (<= (- 5.0) (+ A_4 ?x474 loss_rate_tol))) $x106885 $x108914) (or $x103986 $x105530 $x106002 $x108862 $x111369) $x131843 (or $x103986 $x106487 $x108694 $x108862 $x112366) (or $x103986 $x105793 $x107340) (or $x103986 $x105178 $x105793) (or $x103986 $x105178 $x106487 $x108694 $x110480) (or $x103986 $x105530 (not (<= 0.0 (+ ?x2718 ?x3071 S_2 ?x1425 ?x5023))) $x111363) (or $x103986 $x105339 $x106960) $x139377 $x288938 (or $x103986 $x105001 $x105195 $x111369) (or $x103986 $x105178 $x105392 $x105503 $x111363) (or $x103986 $x105203 $x105793) (or $x103986 $x105793 $x108862) (or $x1353 $x103986 $x105001 $x105195) (or $x103986 $x104503 $x105692 $x112366) (or $x103986 $x105001 $x105195 $x108872) (or $x103986 $x107114 $x108244 $x108862 $x112105) (or $x103986 $x107114 $x108244 $x108862 $x112366) (or $x103986 (not (<= (- 15.0) (+ ?x474 A_2 loss_rate_tol))) $x106885 $x108914) $x275783 (or $x103986 $x104503 $x105380 $x108914 $x111788) (or $x103986 (not (<= (- 5.0) (+ A_4 ?x474 loss_rate_tol))) $x105387 $x108914) (or $x103986 $x105334 $x105380 $x108914 $x111788) (or $x103986 $x108446 $x111363 (not (<= 0.0 (+ ?x3084 ?x1819 S_3 ?x1425 ?x44853)))) (or $x103986 $x105392 $x105503 $x111070 $x111363) (or $x103986 $x107534 $x108446 $x111070 $x111363) (or $x103986 $x105876 $x106960) (or $x103986 $x105334 $x105339 $x105380 $x108914) (or $x103986 $x105339 $x105380 $x105387 $x108914) (or $x103986 $x105334 $x105692 $x108914) (or $x103986 (not (<= 0.0 (+ ?x3092 ?x2815 S_2 ?x430 ?x4291))) $x107443 $x111369) (or $x103986 $x107443 $x111369 $x115424) (or $x103986 $x104964 $x106582 $x108856) (or $x103986 $x105001 $x105943 $x111369) (or $x103986 $x105380 $x105387 $x108914 $x111788) (or $x103986 $x105387 (not (<= (- 15.0) (+ ?x474 A_2 loss_rate_tol))) $x108914) (or $x103986 $x105387 $x105692 $x111363) (or $x103986 $x105001 $x105943 $x108860) (or $x103986 $x105001 $x105943 $x108872) (or $x103986 $x105334 (not (<= (- 15.0) (+ ?x474 A_2 loss_rate_tol))) $x108914) (or $x103986 $x105692 $x106885 $x108914) $x275738 $x144453 (or $x103986 $x105503 (not $x107704) $x111363) (or $x103986 $x108446 $x111363 $x115491) (or $x103986 $x107114 $x112366 (not (<= 0.0 (+ ?x2718 ?x3071 S_3 ?x430 ?x5023)))) (or $x103986 (not (<= (- 5.0) (+ A_4 ?x474 loss_rate_tol))) $x108446 $x112105) (or $x103986 (not (<= 0.0 ?x6803)) $x104964 $x105178 $x108856) (or $x103986 $x104503 (not (<= (- 5.0) (+ A_4 ?x474 loss_rate_tol))) $x108914) (or $x103986 $x104503 $x105178 $x105380 $x108914) (or $x103986 $x104503 $x105339 $x105380 $x108914) (or $x103986 $x104503 $x105380 $x108862 $x108914) $x135957 (or $x103986 $x107534 $x108446 $x111070 $x112105) (or $x103986 $x104503 $x105380 $x105876 $x108914) (or $x103986 $x107534 $x108446 $x108862 $x112105) (or $x103986 $x108446 $x112105 $x115491) $x287742 (or $x103986 $x106479 $x112366 $x116444) (or $x103986 $x108446 $x112366 $x116563) (or $x103986 $x106479 $x112366 (not (<= 0.0 (+ ?x3092 ?x2815 S_3 ?x436 ?x4291)))) (or $x103986 $x106479 $x110445 (not (<= 0.0 (+ ?x8617 ?x54475 S_3 ?x436 ?x5808)))) (or $x103986 $x104503 (not (<= (- 15.0) (+ ?x474 A_2 loss_rate_tol))) $x108914) (or $x103986 $x105203 $x105334 $x105380 $x108914) (or $x103986 $x105392 $x105503 $x107340 $x111363) (or $x103986 $x107340 $x107534 $x108446 $x112105) (or $x103986 $x105387 $x105692 $x108914) (or $x103986 $x107443 $x108860 $x115424) $x289170 (or $x103986 $x105334 $x105380 $x108862 $x108914) (or $x103986 $x105380 $x105387 $x107340 $x108914) (or $x103986 $x105178 $x107534 $x108446 $x112105) (or $x103986 $x105380 $x106885 $x107340 $x108914) (or $x103986 $x105503 (not $x107033) $x111363) (or $x103986 $x104503 $x105692 $x108914) (or $x1353 $x103986 $x106479 $x116444) (or $x103986 $x108446 $x111363 $x116563) (or $x103986 $x105380 $x106885 $x108914 $x111070) (or $x103986 $x105380 $x106885 $x108862 $x108914) $x284919 (or $x103986 $x106960 $x107340) (or $x103986 $x105380 $x106885 $x108914 $x111788) (or $x103986 $x105178 $x105380 $x106885 $x108914) (or $x103986 $x105334 $x105380 $x107340 $x108914) (or $x103986 $x105178 $x105334 $x105380 $x108914) (or $x103986 $x105001 $x105003 $x105178 $x108872) $x39 (<= (+ ?x1363 L_0 S_0) 0.0) (not (>= (+ S_4 L_0 (* (- 1.0) A_1)) 0.0)) (<= (+ (* (- 1.0) S_3) S_1) (- 5.0)) (<= (+ ?x1636 (* (/ 1.0 2.0) S_0)) (- 5.0)) (<= (+ ?x436 S_0) (- 5.0)) (<= (+ S_4 (* (- 3.0) S_3) (* 2.0 S_1)) 0.0) (<= (+ (* (- (/ 1.0 3.0)) S_4) (* (/ 1.0 3.0) S_0)) (- 5.0)) $x6204 (<= (+ (* (- 2.0) S_4) (* 3.0 S_2) ?x430) 0.0) (<= (+ (* (- 3.0) S_4) (* 4.0 S_2) ?x1425) 0.0) $x5118 (<= (+ (* (- (/ 1.0 2.0)) S_4) (* (/ 1.0 2.0) S_1)) (- 5.0)) (<= (+ (* (- 1.0) S_4) (* 2.0 S_1) ?x1425) 0.0)))))))))))))))))))))))))))))))))))))))))))))))))))))))))))))))))))))))))))))))))))))))))))))))))))))))))))))))))))))))))))))))))))))))
(check-sat)
